NAME: cluster_6
TYPE: TSP
DIMENSION: 7
EDGE_WEIGHT_TYPE: EUC_2D
NODE_COORD_SECTION
1 12000.00 16000.00
2 17981.54 28074.09
3 19585.58 25988.67
4 20568.38 25394.40
5 18269.75 31911.36
6 18059.26 28528.99
7 18103.44 25818.33
EOF
